% Logging successfully configured
=====UNKNOWN=====
% time elapsed: 300.03 s
%%%mzn-stat: initTime=0.047719126
%%%mzn-stat: nodes=539961
%%%mzn-stat: restarts=0
%%%mzn-stat: peakDepth=124
%%%mzn-stat: solveTime=296.71459927
%%%mzn-stat: variables=4150
%%%mzn-stat: propagators=14263
%%%mzn-stat: failures=428215
%%%mzn-stat: propagations=638651650
%%%mzn-stat: nogoods=428215
%%%mzn-stat: numAtomicConstraintsPropagated=0
%%%mzn-stat: circuitNumber11176PropagationsThatFoundConflict=2007
%%%mzn-stat: circuitNumber11176TotalFixedEdgesAtConflict=277185
%%%mzn-stat: circuitNumber11176NumberOfConflicts=2007
%%%mzn-stat: circuitNumber11176PropagationsThatPruned=47037
%%%mzn-stat: circuitNumber11176PropagationsTotal=509324
%%%mzn-stat: AverageConflictSize=13.684838223789452
%%%mzn-stat: NumUnitNogoodsLearned=0
%%%mzn-stat: AverageLearnedNogoodLength=53.041616944759056
%%%mzn-stat: AverageBacktrackAmount=0
%%%mzn-stat: AverageLbd=33.32930653993905
%%%mzn-stat: 2AutonomousSearchNumBackupCalled=0
%%%mzn-stat: 2AutonomousSearchNumPredicatesRemoved=0
%%%mzn-stat: 2AutonomousSearchNumCalls=0
%%%mzn-stat: 2AutonomousSearchNumPredicatesAdded=2714
%%%mzn-stat: 2AutonomousSearchAverageSizeOfHeap=0
%%%mzn-stat: 2AutonomousSearchNumAssignedPredicatesEncountered=0
%%%mzn-stat-end
